# IMPORTANT - THE STAGES ARE ASSUMED TO BE IN TIME-ORDER.

set Stages := FirstStage SecondStage ;

set Nodes := RootNode 
             BelowAverageNode
             AverageNode 
             AboveAverageNode ;

param NodeStage := RootNode         FirstStage 
                   BelowAverageNode SecondStage
                   AverageNode      SecondStage 
                   AboveAverageNode SecondStage ;

set Children[RootNode] := BelowAverageNode 
                          AverageNode 
                          AboveAverageNode ;

param ConditionalProbability := RootNode          1.0
                                BelowAverageNode  0.33333333
                                AverageNode       0.33333334
                                AboveAverageNode  0.33333333 ;

set Scenarios := BelowAverageScenario 
                 AverageScenario 
                 AboveAverageScenario ;

param ScenarioLeafNode := 
                    BelowAverageScenario BelowAverageNode
                    AverageScenario      AverageNode
                    AboveAverageScenario AboveAverageNode ;

set StageVariables[FirstStage] :=  DevotedAcreage[*] ;
set StageVariables[SecondStage] := QuantitySubQuotaSold[*]
                                   QuantitySuperQuotaSold[*]
                                   QuantityPurchased[*] ;

param StageCost := FirstStage  FirstStageCost
                   SecondStage SecondStageCost ;
